(set-logic ALL)
(declare-fun var0 () String)
(assert (str.in_re var0 (re.++ (re.union (re.* (str.to_re "00")) (re.union (str.to_re "11") (str.to_re "22"))) (re.++ (re.+ (re.union (str.to_re "3") (str.to_re "44"))) (re.++ (re.+ (re.+ (str.to_re "55"))) (re.++ (re.union (re.union (str.to_re "6") (str.to_re "7")) (re.+ (str.to_re "88"))) (re.++ (re.union (re.union (str.to_re "9") (str.to_re "a")) (re.* (str.to_re "bbb"))) (re.++ (re.+ (re.* (str.to_re "cc"))) (re.++ (re.* (re.+ (str.to_re "ddd"))) (re.++ (re.union (re.+ (str.to_re "e")) (re.+ (str.to_re "f"))) (re.++ (re.union (re.union (str.to_re "g") (str.to_re "hh")) (re.union (str.to_re "i") (str.to_re "j"))) (re.++ (re.union (re.union (str.to_re "kk") (str.to_re "ll")) (re.+ (str.to_re "mm"))) (re.++ (re.union (re.+ (str.to_re "n")) (re.+ (str.to_re "o"))) (re.++ (re.* (re.* (str.to_re "p"))) (re.++ (re.union (re.+ (str.to_re "q")) (re.+ (str.to_re "rrr"))) (re.++ (re.+ (re.* (str.to_re "s"))) (re.++ (re.* (re.+ (str.to_re "ttt"))) (re.++ (re.+ (re.union (str.to_re "uu") (str.to_re "vvv"))) (re.++ (re.union (re.+ (str.to_re "ww")) (re.+ (str.to_re "xxx"))) (re.++ (re.+ (re.union (str.to_re "y") (str.to_re "zzz"))) (re.++ (re.+ (re.union (str.to_re "AA") (str.to_re "BB"))) (re.++ (re.union (re.* (str.to_re "CC")) (re.+ (str.to_re "DDD"))) (re.++ (re.* (re.union (str.to_re "EE") (str.to_re "FFF"))) (re.++ (re.union (re.* (str.to_re "GG")) (re.* (str.to_re "H"))) (re.++ (re.+ (re.* (str.to_re "III"))) (re.++ (re.union (re.* (str.to_re "JJ")) (re.* (str.to_re "KK"))) (re.++ (re.+ (re.+ (str.to_re "LLL"))) (re.++ (re.* (re.union (str.to_re "MMM") (str.to_re "NNN"))) (re.++ (re.* (re.* (str.to_re "OO"))) (re.++ (re.union (re.* (str.to_re "P")) (re.union (str.to_re "QQ") (str.to_re "RR"))) (re.++ (re.* (re.+ (str.to_re "S"))) (re.++ (re.* (re.* (str.to_re "TT"))) (re.++ (re.* (re.union (str.to_re "UU") (str.to_re "VV"))) (re.++ (re.union (re.* (str.to_re "WW")) (re.* (str.to_re "XXX"))) (re.++ (re.* (re.union (str.to_re "YYY") (str.to_re "Z"))) (re.++ (re.* (re.+ (str.to_re "!"))) (re.++ (re.* (re.* (str.to_re """"""))) (re.++ (re.+ (re.* (str.to_re "#"))) (re.++ (re.* (re.* (str.to_re "$$$"))) (re.++ (re.union (re.* (str.to_re "%%%")) (re.union (str.to_re "&&") (str.to_re "'"))) (re.++ (re.union (re.+ (str.to_re "(")) (re.+ (str.to_re ")))"))) (re.++ (re.+ (re.union (str.to_re "**") (str.to_re "++"))) (re.++ (re.union (re.+ (str.to_re ",")) (re.union (str.to_re "---") (str.to_re ".."))) (re.++ (re.union (re.+ (str.to_re "//")) (re.* (str.to_re ":"))) (re.++ (re.+ (re.* (str.to_re ";;"))) (re.++ (re.* (re.+ (str.to_re "<<"))) (re.++ (re.+ (re.+ (str.to_re "==="))) (re.++ (re.+ (re.+ (str.to_re ">>>"))) (re.++ (re.+ (re.* (str.to_re "???"))) (re.++ (re.+ (re.union (str.to_re "@@@") (str.to_re "[[["))) (re.++ (re.* (re.* (str.to_re "\\\\"))) (re.++ (re.* (re.union (str.to_re "]") (str.to_re "^^"))) (re.* (re.* (str.to_re "___")))))))))))))))))))))))))))))))))))))))))))))))))))))))
(assert (not (str.in_re var0 (re.++ (re.+ (re.union (str.to_re "000") (str.to_re "1"))) (re.++ (re.* (re.+ (str.to_re "2"))) (re.++ (re.* (re.union (str.to_re "33") (str.to_re "44"))) (re.++ (re.+ (re.* (str.to_re "55"))) (re.++ (re.* (re.* (str.to_re "6"))) (re.++ (re.union (re.+ (str.to_re "777")) (re.* (str.to_re "88"))) (re.++ (re.union (re.union (str.to_re "999") (str.to_re "a")) (re.* (str.to_re "b"))) (re.++ (re.+ (re.* (str.to_re "cc"))) (re.++ (re.+ (re.+ (str.to_re "ddd"))) (re.++ (re.+ (re.union (str.to_re "eee") (str.to_re "fff"))) (re.++ (re.+ (re.* (str.to_re "gg"))) (re.++ (re.* (re.+ (str.to_re "hh"))) (re.++ (re.union (re.+ (str.to_re "i")) (re.+ (str.to_re "j"))) (re.++ (re.union (re.* (str.to_re "k")) (re.+ (str.to_re "ll"))) (re.++ (re.union (re.* (str.to_re "m")) (re.+ (str.to_re "nn"))) (re.++ (re.union (re.union (str.to_re "oo") (str.to_re "ppp")) (re.union (str.to_re "qq") (str.to_re "r"))) (re.++ (re.union (re.union (str.to_re "sss") (str.to_re "ttt")) (re.* (str.to_re "uu"))) (re.++ (re.* (re.+ (str.to_re "vvv"))) (re.++ (re.* (re.* (str.to_re "www"))) (re.++ (re.union (re.* (str.to_re "xx")) (re.* (str.to_re "y"))) (re.++ (re.+ (re.+ (str.to_re "zz"))) (re.++ (re.* (re.union (str.to_re "AA") (str.to_re "B"))) (re.++ (re.+ (re.* (str.to_re "C"))) (re.++ (re.+ (re.+ (str.to_re "D"))) (re.++ (re.* (re.union (str.to_re "E") (str.to_re "F"))) (re.++ (re.+ (re.* (str.to_re "G"))) (re.++ (re.* (re.+ (str.to_re "HHH"))) (re.++ (re.* (re.union (str.to_re "III") (str.to_re "J"))) (re.++ (re.* (re.union (str.to_re "KK") (str.to_re "LLL"))) (re.++ (re.+ (re.+ (str.to_re "MM"))) (re.++ (re.+ (re.* (str.to_re "NN"))) (re.++ (re.* (re.+ (str.to_re "O"))) (re.++ (re.* (re.union (str.to_re "PPP") (str.to_re "QQQ"))) (re.++ (re.union (re.union (str.to_re "R") (str.to_re "S")) (re.union (str.to_re "TTT") (str.to_re "UUU"))) (re.++ (re.+ (re.* (str.to_re "VV"))) (re.++ (re.+ (re.+ (str.to_re "WW"))) (re.++ (re.* (re.union (str.to_re "XX") (str.to_re "Y"))) (re.++ (re.union (re.+ (str.to_re "ZZZ")) (re.* (str.to_re "!"))) (re.++ (re.* (re.union (str.to_re """""""") (str.to_re "###"))) (re.++ (re.union (re.+ (str.to_re "$$$")) (re.+ (str.to_re "%"))) (re.++ (re.* (re.+ (str.to_re "&&"))) (re.++ (re.+ (re.union (str.to_re "'''") (str.to_re "("))) (re.++ (re.+ (re.union (str.to_re "))") (str.to_re "*"))) (re.++ (re.+ (re.* (str.to_re "+++"))) (re.++ (re.union (re.* (str.to_re ",,,")) (re.* (str.to_re "---"))) (re.++ (re.* (re.* (str.to_re ".."))) (re.++ (re.union (re.union (str.to_re "//") (str.to_re ":")) (re.union (str.to_re ";;") (str.to_re "<<"))) (re.++ (re.+ (re.+ (str.to_re "="))) (re.++ (re.+ (re.union (str.to_re ">") (str.to_re "???"))) (re.++ (re.* (re.+ (str.to_re "@@"))) (re.* (re.union (str.to_re "[[[") (str.to_re "\\\\\\"))))))))))))))))))))))))))))))))))))))))))))))))))))))))
(check-sat)